NAME : OMNETRUN
COMMENT : 524.61
TYPE : CVRP
DIMENSION : 21
EDGE_WEIGHT_TYPE : EUC_2D
CAPACITY : 21
NODE_COORD_SECTION
1 0.107093 -0.77924
2 187.039 -23.4073
3 51.0169 -621.523
4 136.947 -1272.63
5 49.7928 -2653.28
6 40.4222 -3156.25
7 129.748 -3636.26
8 218.297 -4239.75
9 81.4099 -4767.43
10 80.5724 -5358.41
11 499.153 -468.742
12 321.702 -2112.6
13 405.802 -5035.82
14 288.296 -5917.21
15 528.801 -924.556
16 656.186 -1613.47
17 672.945 -2142
18 570.519 -2887.88
19 738.242 -3369.95
20 604.58 -3846.13
21 709.265 -4636.45
DEMAND_SECTION
1 0
2 1
3 1
4 1
5 1
6 1
7 1
8 1
9 1
10 1
11 1
12 1
13 1
14 1
15 1
16 1
17 1
18 1
19 1
20 1
21 1
DEPOT_SECTION
1
-1
EOF
